100
300
40
0 0
91 41
66 13
25 42
86 91
20 26
20 54
95 91
34 55
19 34
70 17
47 9
95 21
50 36
31 3
71 20
94 63
20 40
13 19
92 62
92 37
80 49
83 55
21 9
92 75
56 3
20 30
53 61
35 66
52 31
57 66
88 16
85 65
35 29
48 35
38 37
87 26
59 34
21 40
61 70
66 47
0 0
70
40
60
70
30
70
70
40
60
30
40
60
30
60
30
70
50
50
60
40
70
40
60
70
30
70
70
40
60
30
40
60
30
60
30
70
50
50
60
40
